NAME : berlin52-C-5-3-a.7907.tour
COMMENT : Length = 7907
COMMENT : Found by LKH-3 [Keld Helsgaun] Tue Jul 30 13:14:05 2024
TYPE : TOUR
DIMENSION : 52
TOUR_SECTION
1
35
34
37
48
24
5
6
25
12
28
27
26
47
13
14
52
11
51
33
43
10
9
8
41
19
45
32
49
36
39
40
38
15
4
46
44
16
29
50
20
23
30
2
7
42
21
17
3
18
31
22
-1
EOF
